NAME : tsp225.best.tour
TYPE : TOUR
DIMENSION : 225
TOUR_SECTION
1
200
198
197
195
194
218
193
196
192
191
205
189
27
188
59
58
60
61
63
62
114
113
115
223
116
117
187
118
186
119
185
120
184
171
182
181
180
179
178
177
176
174
173
172
170
169
168
212
214
150
149
148
147
146
155
154
153
152
151
167
166
165
213
158
163
162
161
160
159
156
157
144
145
143
201
142
141
140
139
138
137
136
183
135
134
215
164
132
211
131
86
85
82
221
81
80
79
28
204
29
30
202
206
77
78
217
219
216
31
76
75
74
100
99
98
97
96
95
209
94
93
92
83
84
210
130
222
129
128
127
126
125
124
123
122
175
121
111
112
64
110
109
108
107
105
89
88
87
90
91
101
103
104
220
106
65
66
67
68
69
102
73
72
71
70
54
53
52
55
56
57
51
50
49
207
2
47
225
190
133
199
224
48
45
46
44
43
42
41
40
39
32
35
33
34
26
25
208
24
23
13
14
15
16
17
22
21
20
203
19
18
11
12
36
37
38
10
9
8
7
6
5
4
3
EOF